Code/Rooms/nwalls18-6.dzn
n = 18;

R =
[|0,0,1,0,0,0,0,0,8,8,8,8,8,8,8,8,0,0,
 |0,0,0,0,0,0,0,0,1,0,0,0,0,0,0,0,0,0,
 |0,0,0,0,0,0,0,0,0,0,0,0,0,0,0,0,0,0,
 |0,0,2,0,0,0,0,0,0,7,0,4,4,4,4,0,0,0,
 |0,0,2,0,0,0,0,0,0,7,0,0,0,0,0,0,0,0,
 |0,0,0,0,0,0,0,0,0,7,0,0,0,0,0,0,0,0,
 |8,8,8,8,8,8,8,8,0,7,0,0,0,0,0,0,0,0,
 |0,0,0,0,0,0,0,0,0,7,0,0,0,0,0,0,0,0,
 |0,0,9,1,0,7,0,0,0,7,0,0,0,0,0,0,0,7,
 |0,0,9,0,0,7,0,0,0,7,0,0,0,0,0,8,0,7,
 |0,0,9,6,0,7,0,0,0,0,0,0,0,2,2,8,0,7,
 |2,2,9,6,0,7,0,0,0,0,0,0,0,0,0,8,0,7,
 |0,0,9,6,0,7,0,0,0,0,0,0,0,0,0,8,0,7,
 |0,0,9,6,0,7,1,0,0,0,0,0,0,0,0,8,0,7,
 |0,0,9,6,0,7,0,0,0,0,0,0,0,0,0,8,0,7,
 |0,0,9,6,0,0,0,0,0,0,0,0,0,0,0,8,0,0,
 |0,0,9,0,0,0,0,0,0,0,0,0,0,0,0,8,0,0,
 |0,0,0,4,4,4,4,0,7,7,7,7,7,7,7,0,0,0,
 |];

