Code/Walks/nwalls18-6.txt
1 . W . . . . . W W W W W W W W . . 
1 . . . . . . . W . . . . . . . . . 
1 1 1 1 1 1 1 1 1 1 1 1 1 1 1 1 1 . 
. . W . . . . . . W . W W W W . 1 . 
. . W . . . . . . W . . . . . . 1 . 
. . . . . . . . . W . . . . . . 1 . 
W W W W W W W W . W . . . . . . 1 . 
. . . . . . . . . W . . . . . . 1 . 
. . W W . W . . . W . . . . . . 1 W 
. . W . . W . . . W . . . . . W 1 W 
. . W W . W . . . . . . . W W W 1 W 
W W W W . W . . . . . . . . . W 1 W 
. . W W . W . . . . . . . . . W 1 W 
. . W W . W W . . . . . . . . W 1 W 
. . W W . W . . . . . . . . . W 1 W 
. . W W . . . . . . . . . . . W 1 . 
. . W . . . . . . . . . . . . W 1 . 
. . . W W W W . W W W W W W W . 1 1 
Length: 35, turns: 3
% time elapsed: 1037.75 s
----------
==========
% time elapsed: 1037.75 s
